2	25
953	638	863	143	739	216	912	763	294	266	729	302	542	600	497	599	552	494	866	739	629	56	227	159	932	
853	337	817	442	982	235	234	184	112	338	5	559	664	525	349	810	930	534	205	145	54	628	944	273	796	
2989	2989	
